sat
(:max-memory         18.15
 :memory             17.99
 :nlsat-propagations 11
 :nlsat-stages       4
 :num-allocs         6687
 :rlimit-count       5523
 :time               0.00
 :total-time         0.01)
